2 10
106 88 
0 62 12 39 30 36 6 1
1 51 88 67 31 84 65 2
2 100 30 9 1 27 42 2
3 100 91 77 38 83 26 1
4 42 32 10 83 44 33 2
5 57 94 66 48 54 90 2
6 62 61 18 88 70 91 2
7 64 64 4 2 67 1 2
8 95 53 55 20 35 86 1
9 99 6 67 53 7 19 1
